gecode_r/nonogram_difficult.txt
# Nonogram problem from Gecode: Difficult
# http://www.gecode.org/gecode-doc-latest/classNonogram.html
#
# This file is to be used by the Gecode/R program
# http://www.hakank.org/gecode_r/nonogram.rb
#
row_rules   
3,
1, 1,
1, 1,
1, 1,
1, 2,
5,
1,
2,
1,
1,
1, 2,
1, 2,
2, 1,
2, 2,
3


col_rules
3,
2,
2,
1,
2,
3,
2,
4,
3,
4,
2, 1,
1, 1,
1, 1,
1, 1,
3,
